
Gurobi 9.5.1 (linux64) logging started Wed Mar  9 18:05:00 2022

Set parameter LogFile to value "../results/logs/log_2022_03_09_17_57.csv_5_70.log"
Set parameter Method to value 3
Gurobi Optimizer version 9.5.1 build v9.5.1rc2 (linux64)
Thread count: 8 physical cores, 8 logical processors, using up to 8 threads
Optimize a model with 1783 rows, 9882 columns and 22585 nonzeros
Model fingerprint: 0xb9fbce79
Variable types: 4941 continuous, 4941 integer (4941 binary)
Coefficient statistics:
  Matrix range     [1e+00, 5e+00]
  Objective range  [1e+00, 1e+00]
  Bounds range     [1e+00, 1e+00]
  RHS range        [1e+00, 7e+01]
Found heuristic solution: objective 12.0000000
Presolve removed 944 rows and 8566 columns
Presolve time: 0.03s
Presolved: 839 rows, 1316 columns, 4810 nonzeros
Variable types: 741 continuous, 575 integer (555 binary)
Found heuristic solution: objective 28.0000000

Concurrent LP optimizer: primal simplex, dual simplex, and barrier
Showing barrier log only...

Root barrier log...

Ordering time: 0.00s

Barrier statistics:
 AA' NZ     : 3.463e+03
 Factor NZ  : 9.369e+03 (roughly 1 MB of memory)
 Factor Ops : 1.271e+05 (less than 1 second per iteration)
 Threads    : 1

                  Objective                Residual
Iter       Primal          Dual         Primal    Dual     Compl     Time
   0   2.16320425e+03  1.81691203e+03  1.69e+03 8.41e-01  8.33e+00     0s
   1   4.11749761e+02  1.85754877e+03  2.12e+02 3.11e-15  1.33e+00     0s
   2   2.19844186e+02  6.11310163e+02  3.54e+01 2.00e-15  2.29e-01     0s
   3   1.54966185e+02  2.26453106e+02  2.69e+00 2.44e-15  2.90e-02     0s
   4   1.58881746e+02  1.75674595e+02  4.69e-01 2.01e-15  6.19e-03     0s
   5   1.61326118e+02  1.68331314e+02  2.20e-01 2.15e-15  2.63e-03     0s
   6   1.62173990e+02  1.65696224e+02  1.37e-01 2.11e-15  1.38e-03     0s
   7   1.62930267e+02  1.64106790e+02  6.44e-02 2.60e-15  5.02e-04     0s
   8   1.63607251e+02  1.63692839e+02  3.60e-03 3.78e-15  3.40e-05     0s
   9   1.63641551e+02  1.63655928e+02  9.55e-04 2.89e-15  6.53e-06     0s
  10   1.63653381e+02  1.63654856e+02  1.02e-04 2.23e-15  6.80e-07     0s
  11   1.63654823e+02  1.63654829e+02  3.13e-13 2.21e-15  1.81e-09     0s
  12   1.63654827e+02  1.63654827e+02  4.80e-14 2.31e-15  1.81e-12     0s

Barrier solved model in 12 iterations and 0.04 seconds (0.04 work units)
Optimal objective 1.63654827e+02


Solved with barrier

Root relaxation: objective 1.636548e+02, 235 iterations, 0.02 seconds (0.01 work units)

    Nodes    |    Current Node    |     Objective Bounds      |     Work
 Expl Unexpl |  Obj  Depth IntInf | Incumbent    BestBd   Gap | It/Node Time

     0     0  163.65483    0  297   28.00000  163.65483   484%     -    0s
H    0     0                      65.0000000  163.65483   152%     -    0s
     0     0  119.57377    0  136   65.00000  119.57377  84.0%     -    0s
     0     0  117.73129    0  134   65.00000  117.73129  81.1%     -    0s
     0     0  117.58160    0  133   65.00000  117.58160  80.9%     -    0s
     0     0  117.56826    0  134   65.00000  117.56826  80.9%     -    0s
     0     0  111.87944    0  122   65.00000  111.87944  72.1%     -    0s
     0     0  111.36840    0  108   65.00000  111.36840  71.3%     -    0s
     0     0  111.06761    0   91   65.00000  111.06761  70.9%     -    0s
     0     0  111.04302    0   96   65.00000  111.04302  70.8%     -    0s
     0     0  109.04944    0   73   65.00000  109.04944  67.8%     -    0s
     0     0  108.72578    0   68   65.00000  108.72578  67.3%     -    0s
     0     0  108.64889    0   74   65.00000  108.64889  67.2%     -    0s
     0     0  108.63165    0   78   65.00000  108.63165  67.1%     -    0s
     0     0  107.69765    0   52   65.00000  107.69765  65.7%     -    0s
     0     0  107.49697    0   59   65.00000  107.49697  65.4%     -    0s
     0     0  107.45058    0   66   65.00000  107.45058  65.3%     -    0s
     0     0  106.82132    0   67   65.00000  106.82132  64.3%     -    0s
     0     0  106.73687    0   66   65.00000  106.73687  64.2%     -    0s
     0     0  106.69329    0   57   65.00000  106.69329  64.1%     -    0s
     0     0  106.57345    0   58   65.00000  106.57345  64.0%     -    0s
H    0     0                      67.0000000  106.57345  59.1%     -    0s
     0     0  106.53621    0   69   67.00000  106.53621  59.0%     -    0s
     0     0  106.29612    0   63   67.00000  106.29612  58.7%     -    0s
     0     0  106.29612    0   63   67.00000  106.29612  58.7%     -    0s
     0     2  106.29612    0   63   67.00000  106.29612  58.7%     -    0s
H   64    80                      68.0000000  105.72299  55.5%  40.1    0s
H   66    80                      70.0000005  105.72299  51.0%  40.4    0s
H   74    80                      71.0000000  105.72299  48.9%  38.7    0s
H  116   136                      73.0000000  105.72299  44.8%  34.2    0s
H  119   136                     101.0000000  105.72299  4.68%  33.8    0s
H  125   136                     103.0000000  105.72299  2.64%  32.5    0s
H  192   155                     104.0000000  105.72299  1.66%  30.3    0s

Cutting planes:
  Gomory: 87
  Implied bound: 12
  MIR: 376
  RLT: 62
  Relax-and-lift: 20

Explored 375 nodes (9759 simplex iterations) in 0.65 seconds (0.83 work units)
Thread count was 8 (of 8 available processors)

Solution count 10: 104 103 101 ... 28

Optimal solution found (tolerance 1.00e-04)
Best objective 1.040000000000e+02, best bound 1.040000000000e+02, gap 0.0000%
